************************************************************************
file with basedata            : j60_30.bas
initial value random generator: 3215
************************************************************************
projects                      :  1
jobs (incl. supersource/sink ):  62
horizon                       :  332
RESOURCES
  - renewable                 :  4   R
  - nonrenewable              :  0   N
  - doubly constrained        :  0   D
************************************************************************
PROJECT INFORMATION:
pronr.  #jobs rel.date duedate tardcost  MPM-Time
    1     60      0       59       16       59
************************************************************************
PRECEDENCE RELATIONS:
jobnr.    #modes  #successors   successors
   1        1          3           2   3   4
   2        1          1          19
   3        1          1           5
   4        1          3           8   9  17
   5        1          3           6   7  11
   6        1          3          10  14  24
   7        1          3          12  22  32
   8        1          2          20  61
   9        1          3          13  16  21
  10        1          2          18  29
  11        1          1          30
  12        1          2          15  18
  13        1          3          43  45  46
  14        1          2          41  58
  15        1          1          31
  16        1          1          33
  17        1          2          25  26
  18        1          1          19
  19        1          1          57
  20        1          2          28  36
  21        1          2          40  49
  22        1          3          23  35  48
  23        1          1          29
  24        1          2          27  60
  25        1          1          54
  26        1          1          28
  27        1          1          39
  28        1          3          34  50  51
  29        1          2          38  44
  30        1          1          51
  31        1          1          37
  32        1          1          36
  33        1          1          52
  34        1          1          53
  35        1          1          38
  36        1          1          53
  37        1          2          42  45
  38        1          1          47
  39        1          1          45
  40        1          2          51  55
  41        1          1          42
  42        1          1          44
  43        1          2          47  57
  44        1          1          56
  45        1          1          50
  46        1          1          54
  47        1          3          55  56  59
  48        1          1          54
  49        1          1          50
  50        1          1          57
  51        1          1          58
  52        1          1          58
  53        1          1          60
  54        1          1          55
  55        1          1          61
  56        1          1          61
  57        1          1          59
  58        1          1          59
  59        1          1          62
  60        1          1          62
  61        1          1          62
  62        1          0        
************************************************************************
REQUESTS/DURATIONS:
jobnr. mode duration  R 1  R 2  R 3  R 4
------------------------------------------------------------------------
  1      1     0       0    0    0    0
  2      1     6      10    8    6    6
  3      1     1       8    8    5    6
  4      1    10       6    8   10    6
  5      1     2       3    1    7    5
  6      1    10       5    4    3    4
  7      1     8      10    8   10    3
  8      1     9       3    8    4    9
  9      1    10       2    6    1   10
 10      1     4       3    7    8    2
 11      1     1       5    3    8    4
 12      1     4       5    5    3    7
 13      1     4       2    4    7    6
 14      1     5       7    7    6    7
 15      1     6       3    9    6    7
 16      1     3       9    2    9    2
 17      1     9       6    7    8   10
 18      1     6       7    7    2   10
 19      1     9       7    3   10    7
 20      1     1       2    2    2    7
 21      1     7       5    2    7   10
 22      1     4       9    1    1    4
 23      1     1       2    8    7    9
 24      1    10       9    9    1    1
 25      1     9       6    1    5    1
 26      1     4       2    4    8    6
 27      1    10       5    7    5    8
 28      1     8       3    7    7    7
 29      1     1       7    8    5    2
 30      1     7       7    1    7    4
 31      1     2       6   10   10    7
 32      1     8       6   10    7    6
 33      1     2       3    3    2    2
 34      1     1       3    6    1    4
 35      1    10       6    2    8    2
 36      1     2       8    2   10    2
 37      1     1       5    6    3   10
 38      1     3       7    2    6    3
 39      1     1       3    7    8    5
 40      1     4       1    9    1    5
 41      1    10       8    9    2    1
 42      1     2      10    8    5   10
 43      1     8       6    6    2   10
 44      1     9       5    6    3    7
 45      1     2       5    1    9    1
 46      1     9       3    1    9    2
 47      1     5       9    6    1    6
 48      1     5       9   10    6    7
 49      1     4       1    8    8    4
 50      1     4       9    1    2    9
 51      1     9       9    6    1    6
 52      1     3       4    3    3   10
 53      1     7       2    4    4    7
 54      1     8       1    1   10    7
 55      1     8      10   10    6    6
 56      1     2       3    5   10    9
 57      1    10       7    5    4    3
 58      1     4       2    7   10   10
 59      1     9       3    6    6    6
 60      1    10       9    6    3    2
 61      1     1       6    6    9    7
 62      1     0       0    0    0    0
************************************************************************
RESOURCEAVAILABILITIES:
  R 1  R 2  R 3  R 4
   39   47   40   41
************************************************************************
Job	#risk	Type	VL	mu	sigma	Type	VL	mu	sigma
9	2	4	0.2	5	1	6	0.1	7.5	0.75
10	1	6	0.05	7.5	0.375
12	2	1	0.05	1.25	0.0625	5	0.05	6.25	0.3125
14	1	5	0.05	6.25	0.3125
16	1	8	0.05	10	0.5
21	2	2	0.2	2.5	0.5	8	0.2	10	2
23	2	7	0.2	8.75	1.75	8	0.1	10	1
25	1	5	0.2	6.25	1.25
28	1	4	0.05	5	0.25
30	2	4	0.1	5	0.5	6	0.2	7.5	1.5
33	2	1	0.05	1.25	0.0625	5	0.2	6.25	1.25
37	1	6	0.1	7.5	0.75
39	2	1	0.05	1.25	0.0625	2	0.2	2.5	0.5
42	1	4	0.1	5	0.5
48	2	6	0.2	7.5	1.5	8	0.1	10	1
51	2	4	0.1	5	0.5	6	0.05	7.5	0.375
59	1	4	0.1	5	0.5
61	2	1	0.2	1.25	0.25	8	0.2	10	2
